
Gurobi 10.0.3 (linux64, gurobi_cl) logging started Thu Nov  9 11:40:47 2023

Set parameter Username
Set parameter TimeLimit to value 3600
Set parameter LogFile to value "RCPSP_93.log"
Set parameter Threads to value 32
Academic license - for non-commercial use only - expires 2024-10-30
Using license file /home/jrivera6/gurobi-licenses/v1003/compute-0-34/gurobi.lic

Gurobi Optimizer version 10.0.3 build v10.0.3rc0 (linux64)
Copyright (c) 2023, Gurobi Optimization, LLC

Read MPS format model from file RCPSP_93.mps
Reading time = 0.01 seconds
RCPSP_93: 5329 rows, 2080 columns, 17974 nonzeros

CPU model: Intel(R) Xeon(R) Gold 6130 CPU @ 2.10GHz, instruction set [SSE2|AVX|AVX2|AVX512]
Thread count: 32 physical cores, 32 logical processors, using up to 32 threads

Optimize a model with 5329 rows, 2080 columns and 17974 nonzeros
Model fingerprint: 0xf7826924
Variable types: 32 continuous, 2048 integer (2048 binary)
Coefficient statistics:
  Matrix range     [1e+00, 2e+02]
  Objective range  [1e+00, 1e+00]
  Bounds range     [1e+00, 1e+00]
  RHS range        [1e+00, 2e+02]
Presolve removed 2645 rows and 996 columns
Presolve time: 0.23s
Presolved: 2684 rows, 1084 columns, 9349 nonzeros
Variable types: 31 continuous, 1053 integer (1053 binary)

Root relaxation: objective 6.100000e+01, 390 iterations, 0.00 seconds (0.00 work units)

    Nodes    |    Current Node    |     Objective Bounds      |     Work
 Expl Unexpl |  Obj  Depth IntInf | Incumbent    BestBd   Gap | It/Node Time

     0     0   61.00000    0   16          -   61.00000      -     -    0s
     0     0   61.00000    0   59          -   61.00000      -     -    0s
     0     0   61.00000    0    9          -   61.00000      -     -    0s
     0     0   61.00000    0    6          -   61.00000      -     -    1s
     0     0   61.00000    0   22          -   61.00000      -     -    1s
     0     0   61.00000    0    6          -   61.00000      -     -    1s
     0     0   61.00000    0   10          -   61.00000      -     -    1s
     0     0   61.00000    0   30          -   61.00000      -     -    1s
     0     0   61.00000    0   20          -   61.00000      -     -    1s
H    0     0                      76.0000000   61.00000  19.7%     -    1s
     0     0   61.00000    0   14   76.00000   61.00000  19.7%     -    1s
H    0     0                      75.0000000   61.00000  18.7%     -    1s
     0     0   61.00000    0   31   75.00000   61.00000  18.7%     -    1s
H    0     0                      69.0000000   61.00000  11.6%     -    2s
     0     0   61.00000    0   11   69.00000   61.00000  11.6%     -    2s
     0     0   61.00000    0   11   69.00000   61.00000  11.6%     -    2s
H    0     0                      69.0000000   61.00000  11.6%     -    2s
     0     2   61.00000    0   11   69.00000   61.00000  11.6%     -    3s
    43    56   61.00000    6   28   69.00000   61.00000  11.6%  49.8    5s
H   44    56                      67.0000000   61.00000  8.96%  48.7    5s
H  107    67                      63.0000000   61.00000  3.17%  44.1   18s
H  132    67                      62.0000000   61.00000  1.61%  43.2   18s
   171    21   61.00000   10   38   62.00000   61.00000  1.61%  38.5   22s
H  177    21                      61.0000000   61.00000  0.00%  50.4   22s

Cutting planes:
  Gomory: 11
  Cover: 90
  Implied bound: 126
  Clique: 3
  MIR: 95
  StrongCG: 3
  Zero half: 3
  RLT: 48
  Relax-and-lift: 39
  PSD: 2

Explored 184 nodes (17461 simplex iterations) in 22.23 seconds (1.06 work units)
Thread count was 32 (of 32 available processors)

Solution count 8: 61 62 63 ... 76

Optimal solution found (tolerance 1.00e-04)
Best objective 6.100000000000e+01, best bound 6.100000000000e+01, gap 0.0000%

Wrote result file 'RCPSP_93.sol'

